
Gurobi 9.1.2 (mac64, Python) logging started Sat Oct 30 19:31:37 2021

Academic license - for non-commercial use only - expires 2022-10-25
Using license file /Users/travistpcc/gurobi.lic
Set parameter LogFile to value gurobi.log
